TIME 50
2510
19155
2765
19153
2852
19153
1956
19155
1893
19154
1823
19154
2441
19159
1742
19154
2669
19153
1231
19154
TIME 100
2371
19154
2314
19153
2540
19155
3407
19158
1903
19154
2886
19158
2441
19154
3295
19154
2205
19153
2433
19154
TIME 150
2220
19154
2691
19153
2761
19157
2254
19154
2790
19155
2536
19158
2790
19158
3130
19154
3115
19153
2247
19157
TIME 200
3641
19153
3144
19153
3558
19153
3669
19158
2524
19158
3765
19153
4577
19153
2765
19154
4232
19153
2551
19158
TIME 250
1998
19154
1893
19158
3723
19153
2131
19154
3181
19153
3116
19153
3259
19153
3235
19153
3901
19153
1382
19155
TIME 300
2300
19153
4002
19153
3117
19154
1609
19157
4026
19154
1498
19158
2887
19153
2729
19153
2615
19153
2197
19153
TIME 350
4984
19153
3751
19153
